p cnf 144 1
144 0
w 1 0.141727
w 2 1 0
w 2 -1 1
w 3 2 0.0376999
w 3 -2 0.629387
w 4 3 1
w 4 -3 0
w 5 4 0.0709312
w 5 -4 0.85276
w 6 5 1
w 6 -5 0
w 7 6 0.091102
w 7 -6 0.380168
w 8 7 0.77621
w 8 -7 0.471024
w 9 8 1
w 9 -8 0
w 10 9 0.288973
w 10 -9 0.596195
w 11 10 0
w 11 -10 1
w 12 11 0.987666
w 12 -11 0.0102671
w 13 1 0.950007
w 13 -1 0.151994
w 14 13 2 0.421373
w 14 13 -2 0.110687
w 14 -13 2 0.0358764
w 14 -13 -2 0.0507599
w 15 14 3 0
w 15 14 -3 1
w 15 -14 3 1
w 15 -14 -3 1
w 16 15 4 0
w 16 15 -4 1
w 16 -15 4 0
w 16 -15 -4 0
w 17 16 5 0.00264911
w 17 16 -5 0.0560131
w 17 -16 5 0.623587
w 17 -16 -5 0.964131
w 18 17 6 1
w 18 17 -6 1
w 18 -17 6 0
w 18 -17 -6 0
w 19 18 7 1
w 19 18 -7 0
w 19 -18 7 1
w 19 -18 -7 0
w 20 19 8 0.527042
w 20 19 -8 0.473104
w 20 -19 8 0.773181
w 20 -19 -8 0.577801
w 21 20 9 0.678093
w 21 20 -9 0.279499
w 21 -20 9 0.245118
w 21 -20 -9 0.435766
w 22 21 10 0
w 22 21 -10 0
w 22 -21 10 1
w 22 -21 -10 0
w 23 22 11 0
w 23 22 -11 0
w 23 -22 11 0
w 23 -22 -11 1
w 24 23 12 0.427252
w 24 23 -12 0.0513961
w 24 -23 12 0.0629762
w 24 -23 -12 0.627408
w 25 13 0.218638
w 25 -13 0.837831
w 26 25 14 0.324307
w 26 25 -14 0.200249
w 26 -25 14 0.418656
w 26 -25 -14 0.851349
w 27 26 15 0.191837
w 27 26 -15 0.429151
w 27 -26 15 0.496998
w 27 -26 -15 0.86993
w 28 27 16 0.742115
w 28 27 -16 0.305696
w 28 -27 16 0.978186
w 28 -27 -16 0.13869
w 29 28 17 0
w 29 28 -17 1
w 29 -28 17 1
w 29 -28 -17 1
w 30 29 18 1
w 30 29 -18 0
w 30 -29 18 0
w 30 -29 -18 1
w 31 30 19 0.440892
w 31 30 -19 0.362121
w 31 -30 19 0.174333
w 31 -30 -19 0.278723
w 32 31 20 0
w 32 31 -20 0
w 32 -31 20 1
w 32 -31 -20 1
w 33 32 21 1
w 33 32 -21 1
w 33 -32 21 0
w 33 -32 -21 1
w 34 33 22 0
w 34 33 -22 0
w 34 -33 22 1
w 34 -33 -22 1
w 35 34 23 0
w 35 34 -23 1
w 35 -34 23 1
w 35 -34 -23 0
w 36 35 24 0.797497
w 36 35 -24 0.700229
w 36 -35 24 0.487473
w 36 -35 -24 0.610981
w 37 25 1
w 37 -25 0
w 38 37 26 1
w 38 37 -26 1
w 38 -37 26 0
w 38 -37 -26 1
w 39 38 27 0
w 39 38 -27 0
w 39 -38 27 0
w 39 -38 -27 1
w 40 39 28 0.245269
w 40 39 -28 0.611215
w 40 -39 28 0.165704
w 40 -39 -28 0.733058
w 41 40 29 1
w 41 40 -29 1
w 41 -40 29 1
w 41 -40 -29 0
w 42 41 30 1
w 42 41 -30 1
w 42 -41 30 1
w 42 -41 -30 0
w 43 42 31 1
w 43 42 -31 1
w 43 -42 31 1
w 43 -42 -31 0
w 44 43 32 0.628201
w 44 43 -32 0.27269
w 44 -43 32 0.30481
w 44 -43 -32 0.15392
w 45 44 33 0
w 45 44 -33 1
w 45 -44 33 1
w 45 -44 -33 1
w 46 45 34 0.100227
w 46 45 -34 0.687487
w 46 -45 34 0.94928
w 46 -45 -34 0.833284
w 47 46 35 0.944574
w 47 46 -35 0.0323171
w 47 -46 35 0.222918
w 47 -46 -35 0.0471694
w 48 47 36 1
w 48 47 -36 1
w 48 -47 36 1
w 48 -47 -36 0
w 49 37 0.37761
w 49 -37 0.289287
w 50 49 38 0.523563
w 50 49 -38 0.944478
w 50 -49 38 0.768944
w 50 -49 -38 0.151764
w 51 50 39 1
w 51 50 -39 1
w 51 -50 39 0
w 51 -50 -39 1
w 52 51 40 0
w 52 51 -40 1
w 52 -51 40 0
w 52 -51 -40 1
w 53 52 41 0.180306
w 53 52 -41 0.394465
w 53 -52 41 0.64203
w 53 -52 -41 0.12488
w 54 53 42 1
w 54 53 -42 1
w 54 -53 42 0
w 54 -53 -42 0
w 55 54 43 0.804754
w 55 54 -43 0.294926
w 55 -54 43 0.60547
w 55 -54 -43 0.182364
w 56 55 44 0.400201
w 56 55 -44 0.705926
w 56 -55 44 0.528691
w 56 -55 -44 0.169145
w 57 56 45 0.745859
w 57 56 -45 0.2429
w 57 -56 45 0.163374
w 57 -56 -45 0.351855
w 58 57 46 0
w 58 57 -46 0
w 58 -57 46 1
w 58 -57 -46 0
w 59 58 47 1
w 59 58 -47 0
w 59 -58 47 0
w 59 -58 -47 0
w 60 59 48 1
w 60 59 -48 0
w 60 -59 48 0
w 60 -59 -48 1
w 61 49 1
w 61 -49 0
w 62 61 50 1
w 62 61 -50 0
w 62 -61 50 0
w 62 -61 -50 0
w 63 62 51 1
w 63 62 -51 0
w 63 -62 51 1
w 63 -62 -51 1
w 64 63 52 0.469881
w 64 63 -52 0.362315
w 64 -63 52 0.877513
w 64 -63 -52 0.900913
w 65 64 53 0.690322
w 65 64 -53 0.59635
w 65 -64 53 0.814989
w 65 -64 -53 0.0643122
w 66 65 54 0
w 66 65 -54 0
w 66 -65 54 0
w 66 -65 -54 1
w 67 66 55 0
w 67 66 -55 1
w 67 -66 55 0
w 67 -66 -55 0
w 68 67 56 0
w 68 67 -56 0
w 68 -67 56 1
w 68 -67 -56 0
w 69 68 57 0.0709014
w 69 68 -57 0.105751
w 69 -68 57 0.757111
w 69 -68 -57 0.297883
w 70 69 58 1
w 70 69 -58 1
w 70 -69 58 1
w 70 -69 -58 0
w 71 70 59 0.640145
w 71 70 -59 0.850605
w 71 -70 59 0.265028
w 71 -70 -59 0.455135
w 72 71 60 0.508706
w 72 71 -60 0.29228
w 72 -71 60 0.747685
w 72 -71 -60 0.041741
w 73 61 0
w 73 -61 1
w 74 73 62 0.579726
w 74 73 -62 0.451903
w 74 -73 62 0.788391
w 74 -73 -62 0.935156
w 75 74 63 0.514595
w 75 74 -63 0.948222
w 75 -74 63 0.345576
w 75 -74 -63 0.491906
w 76 75 64 0
w 76 75 -64 0
w 76 -75 64 1
w 76 -75 -64 1
w 77 76 65 0.0847699
w 77 76 -65 0.423025
w 77 -76 65 0.69207
w 77 -76 -65 0.753447
w 78 77 66 1
w 78 77 -66 1
w 78 -77 66 0
w 78 -77 -66 0
w 79 78 67 0.810585
w 79 78 -67 0.205277
w 79 -78 67 0.568921
w 79 -78 -67 0.0870453
w 80 79 68 0.298004
w 80 79 -68 0.666772
w 80 -79 68 0.432869
w 80 -79 -68 0.0863949
w 81 80 69 0.013946
w 81 80 -69 0.600989
w 81 -80 69 0.55015
w 81 -80 -69 0.359522
w 82 81 70 1
w 82 81 -70 0
w 82 -81 70 0
w 82 -81 -70 0
w 83 82 71 0.8737
w 83 82 -71 0.971049
w 83 -82 71 0.989892
w 83 -82 -71 0.56577
w 84 83 72 0.053062
w 84 83 -72 0.108445
w 84 -83 72 0.742971
w 84 -83 -72 0.571367
w 85 73 0.270151
w 85 -73 0.381951
w 86 85 74 0.839073
w 86 85 -74 0.468997
w 86 -85 74 0.752281
w 86 -85 -74 0.137077
w 87 86 75 1
w 87 86 -75 1
w 87 -86 75 1
w 87 -86 -75 0
w 88 87 76 0.287846
w 88 87 -76 0.558618
w 88 -87 76 0.917356
w 88 -87 -76 0.857119
w 89 88 77 0
w 89 88 -77 0
w 89 -88 77 1
w 89 -88 -77 1
w 90 89 78 0.926226
w 90 89 -78 0.698741
w 90 -89 78 0.438943
w 90 -89 -78 0.979288
w 91 90 79 0.181914
w 91 90 -79 0.550655
w 91 -90 79 0.373224
w 91 -90 -79 0.452066
w 92 91 80 0.144538
w 92 91 -80 0.291139
w 92 -91 80 0.401602
w 92 -91 -80 0.896819
w 93 92 81 1
w 93 92 -81 0
w 93 -92 81 0
w 93 -92 -81 0
w 94 93 82 0
w 94 93 -82 1
w 94 -93 82 0
w 94 -93 -82 0
w 95 94 83 1
w 95 94 -83 0
w 95 -94 83 0
w 95 -94 -83 0
w 96 95 84 0.877877
w 96 95 -84 0.07171
w 96 -95 84 0.484484
w 96 -95 -84 0.316821
w 97 85 1
w 97 -85 0
w 98 97 86 0
w 98 97 -86 1
w 98 -97 86 1
w 98 -97 -86 0
w 99 98 87 0.24194
w 99 98 -87 0.935861
w 99 -98 87 0.70625
w 99 -98 -87 0.670155
w 100 99 88 1
w 100 99 -88 1
w 100 -99 88 0
w 100 -99 -88 1
w 101 100 89 1
w 101 100 -89 0
w 101 -100 89 0
w 101 -100 -89 1
w 102 101 90 0.894674
w 102 101 -90 0.2636
w 102 -101 90 0.63001
w 102 -101 -90 0.772552
w 103 102 91 1
w 103 102 -91 1
w 103 -102 91 1
w 103 -102 -91 0
w 104 103 92 0.987961
w 104 103 -92 0.0710575
w 104 -103 92 0.538908
w 104 -103 -92 0.522219
w 105 104 93 0.780848
w 105 104 -93 0.45808
w 105 -104 93 0.586739
w 105 -104 -93 0.451002
w 106 105 94 0.374958
w 106 105 -94 0.772844
w 106 -105 94 0.679611
w 106 -105 -94 0.444241
w 107 106 95 0.990823
w 107 106 -95 0.353208
w 107 -106 95 0.762325
w 107 -106 -95 0.722067
w 108 107 96 0
w 108 107 -96 0
w 108 -107 96 0
w 108 -107 -96 1
w 109 97 1
w 109 -97 0
w 110 109 98 0
w 110 109 -98 0
w 110 -109 98 1
w 110 -109 -98 1
w 111 110 99 1
w 111 110 -99 0
w 111 -110 99 1
w 111 -110 -99 0
w 112 111 100 1
w 112 111 -100 0
w 112 -111 100 0
w 112 -111 -100 1
w 113 112 101 0.610374
w 113 112 -101 0.035724
w 113 -112 101 0.114744
w 113 -112 -101 0.181207
w 114 113 102 0
w 114 113 -102 1
w 114 -113 102 0
w 114 -113 -102 0
w 115 114 103 0.365354
w 115 114 -103 0.674199
w 115 -114 103 0.786725
w 115 -114 -103 0.754647
w 116 115 104 0.137821
w 116 115 -104 0.233311
w 116 -115 104 0.200973
w 116 -115 -104 0.89508
w 117 116 105 1
w 117 116 -105 1
w 117 -116 105 0
w 117 -116 -105 0
w 118 117 106 1
w 118 117 -106 1
w 118 -117 106 0
w 118 -117 -106 1
w 119 118 107 0
w 119 118 -107 0
w 119 -118 107 0
w 119 -118 -107 1
w 120 119 108 0.45538
w 120 119 -108 0.980947
w 120 -119 108 0.864936
w 120 -119 -108 0.203993
w 121 109 0.41506
w 121 -109 0.569347
w 122 121 110 0.201785
w 122 121 -110 0.323994
w 122 -121 110 0.338852
w 122 -121 -110 0.339606
w 123 122 111 0.539825
w 123 122 -111 0.234686
w 123 -122 111 0.857389
w 123 -122 -111 0.185299
w 124 123 112 0.763153
w 124 123 -112 0.797494
w 124 -123 112 0.390285
w 124 -123 -112 0.0554445
w 125 124 113 0.118033
w 125 124 -113 0.185267
w 125 -124 113 0.2276
w 125 -124 -113 0.516283
w 126 125 114 0.656433
w 126 125 -114 0.0292781
w 126 -125 114 0.846866
w 126 -125 -114 0.111813
w 127 126 115 0
w 127 126 -115 0
w 127 -126 115 1
w 127 -126 -115 0
w 128 127 116 0.524867
w 128 127 -116 0.328647
w 128 -127 116 0.209147
w 128 -127 -116 0.863719
w 129 128 117 0.766453
w 129 128 -117 0.403544
w 129 -128 117 0.902939
w 129 -128 -117 0.623841
w 130 129 118 0.861022
w 130 129 -118 0.386994
w 130 -129 118 0.386337
w 130 -129 -118 0.251307
w 131 130 119 0
w 131 130 -119 1
w 131 -130 119 0
w 131 -130 -119 0
w 132 131 120 0.553168
w 132 131 -120 0.10486
w 132 -131 120 0.914901
w 132 -131 -120 0.400035
w 133 121 0
w 133 -121 1
w 134 133 122 0
w 134 133 -122 1
w 134 -133 122 0
w 134 -133 -122 0
w 135 134 123 1
w 135 134 -123 1
w 135 -134 123 1
w 135 -134 -123 0
w 136 135 124 0
w 136 135 -124 0
w 136 -135 124 0
w 136 -135 -124 1
w 137 136 125 0
w 137 136 -125 1
w 137 -136 125 0
w 137 -136 -125 0
w 138 137 126 0.474212
w 138 137 -126 0.292137
w 138 -137 126 0.505829
w 138 -137 -126 0.0273797
w 139 138 127 1
w 139 138 -127 1
w 139 -138 127 0
w 139 -138 -127 0
w 140 139 128 0.146149
w 140 139 -128 0.201429
w 140 -139 128 0.777949
w 140 -139 -128 0.563781
w 141 140 129 0.345295
w 141 140 -129 0.190561
w 141 -140 129 0.826027
w 141 -140 -129 0.580893
w 142 141 130 0.47373
w 142 141 -130 0.71943
w 142 -141 130 0.600868
w 142 -141 -130 0.710276
w 143 142 131 0.00493552
w 143 142 -131 0.333158
w 143 -142 131 0.969855
w 143 -142 -131 0.851442
w 144 143 132 0
w 144 143 -132 1
w 144 -143 132 0
w 144 -143 -132 0